4 
5  27 42 57 
6  10 17 25 32 42 49 57 
7  04 12 19 27 34 42 49 57 
8  04 12 19 27 34 42 49 57 
9  04 12 19 27 34 42 49 57 
10  04 16 23 31 38 46 53 
11  01 08 16 23 31 38 46 53 
12  01 08 16 23 31 38 46 53 
13  01 08 16 23 31 38 46 53 
14  01 08 16 23 31 38 46 53 
15  01 08 16 27 35 42 49 57 
16  05 12 20 27 35 42 50 57 
17  05 12 20 27 35 42 50 57 
18  05 12 21 27 36 42 51 57 
19  06 12 20 31 38 46 53 
20  01 08 18 28 36 44 58 
21  12 27 42 57 
22  12 27 38 53 
23  08 21 41 
0 
